147
10000
385
4179
1688
1202
2831
2062
939
1501
444
1012
1116
659
3046
879
415
810
4096
2385
1029
788
3426
928
2030
1790
3695
4403
1299
120
4708
1824
944
2315
3054
4711
93
648
1356
2991
1122
1065
147
620
1900
2365
120
327
2116
136
2095
1314
4100
302
4745
4
1679
167
738
925
2095
4361
377
1282
157
935
136
4933
2486
4750
3535
1462
1960
2557
2437
1525
1584
1368
2288
4387
1970
2334
2571
1545
1245
499
3737
1230
2810
491
428
2591
3966
2538
3302
3376
4598
3791
1078
782
3297
1116
1603
1558
427
3435
3772
3224
1097
653
4045
994
1659
4820
2346
717
1137
2620
1091
2571
3174
870
1902
2235
2809
4851
1370
1004
3046
3058
1525
155
1306
2071
1952
2287
2819
3041
4780
1956
3406
3379
1417
4847
2742
244
2815
3280
2192
